
Gurobi 9.5.0 (linux64) logging started Wed Nov  8 21:39:35 2023

Set parameter LogFile to value "/lustre1/scratch/348/vsc34888/JointResearch/05.Models/06.Benchmarking/G.Representative_days_based_on_Line_Benefit_NN_OC_fy_2/RTS24_ByStages_nc50/openStarNet_RTS24_ByStages_nc50.log"
Set parameter Method to value 2
Set parameter MIPFocus to value 1
Set parameter Presolve to value 2
Set parameter RINS to value 100
Set parameter MIPGap to value 0.01
Set parameter Threads to value 36
Set parameter TimeLimit to value 604800
Set parameter IterationLimit to value 760000000
Gurobi Optimizer version 9.5.0 build v9.5.0rc5 (linux64)
Thread count: 36 physical cores, 36 logical processors, using up to 36 threads
Optimize a model with 22253 rows, 12799 columns and 61138 nonzeros
Model fingerprint: 0x4ac65cc3
Variable types: 12760 continuous, 39 integer (39 binary)
Coefficient statistics:
  Matrix range     [1e-03, 2e+03]
  Objective range  [1e+00, 1e+00]
  Bounds range     [4e-04, 3e+00]
  RHS range        [4e-04, 3e+00]
Presolve removed 10853 rows and 5446 columns
Presolve time: 0.10s
Presolved: 11400 rows, 7353 columns, 39664 nonzeros
Variable types: 7314 continuous, 39 integer (39 binary)
Found heuristic solution: objective 151.3505404
Root relaxation presolved: 11400 rows, 7353 columns, 39664 nonzeros

Root barrier log...

Ordering time: 0.00s

Barrier statistics:
 Dense cols : 39
 AA' NZ     : 8.435e+04
 Factor NZ  : 2.732e+05 (roughly 10 MB of memory)
 Factor Ops : 8.169e+06 (less than 1 second per iteration)
 Threads    : 36

                  Objective                Residual
Iter       Primal          Dual         Primal    Dual     Compl     Time
   0   5.70758086e+05 -9.97823068e+07  4.21e+00 4.51e+02  1.19e+04     0s
   1   5.62971862e+04 -2.59650117e+07  3.36e-01 4.26e-09  1.46e+03     0s
   2   1.91494628e+04 -3.23824947e+06  1.04e-02 1.97e-09  1.43e+02     0s
   3   1.27166804e+04 -1.71440559e+05  8.74e-13 7.53e-11  7.94e+00     0s
   4   2.71700056e+03 -2.74187747e+04  1.14e-12 8.73e-12  1.30e+00     0s
   5   9.88793946e+02 -7.31937532e+03  6.86e-13 1.95e-12  3.58e-01     0s
   6   4.95010978e+02 -2.17342099e+03  3.47e-13 1.82e-12  1.15e-01     0s
   7   2.87976604e+02 -7.71646218e+02  3.07e-13 9.09e-13  4.57e-02     0s
   8   1.96760532e+02 -1.96833260e+02  2.50e-13 1.82e-12  1.70e-02     0s
   9   1.46480339e+02 -1.62880435e+01  2.53e-13 9.09e-13  7.01e-03     0s
  10   1.11692336e+02  5.83788753e+01  5.30e-13 1.82e-12  2.30e-03     0s
  11   9.79268811e+01  7.56030960e+01  7.37e-13 1.82e-12  9.62e-04     0s
  12   9.45506706e+01  8.58327158e+01  1.51e-12 3.64e-12  3.76e-04     0s
  13   9.17959183e+01  8.78497976e+01  2.37e-12 1.82e-12  1.70e-04     0s
  14   9.08978874e+01  8.86460252e+01  4.82e-12 3.64e-12  9.70e-05     0s
  15   9.05225797e+01  8.94465158e+01  5.72e-12 1.82e-12  4.64e-05     0s
  16   9.00733232e+01  8.97162042e+01  5.26e-11 1.82e-12  1.54e-05     0s
  17   8.99383270e+01  8.98500095e+01  2.03e-11 1.82e-12  3.81e-06     0s
  18   8.99114181e+01  8.98858077e+01  8.38e-11 1.82e-12  1.10e-06     0s
  19   8.99041767e+01  8.99009168e+01  3.03e-11 1.82e-12  1.40e-07     0s
  20   8.99028549e+01  8.99028088e+01  1.38e-09 1.82e-12  1.99e-09     0s
  21   8.99028303e+01  8.99028302e+01  3.25e-10 1.82e-12  1.99e-12     0s

Barrier solved model in 21 iterations and 0.46 seconds (0.35 work units)
Optimal objective 8.99028303e+01


Root relaxation: objective 8.990283e+01, 896 iterations, 0.32 seconds (0.18 work units)

    Nodes    |    Current Node    |     Objective Bounds      |     Work
 Expl Unexpl |  Obj  Depth IntInf | Incumbent    BestBd   Gap | It/Node Time

     0     0   89.90283    0   11  151.35054   89.90283  40.6%     -    0s
H    0     0                     104.8847408   89.90283  14.3%     -    0s
     0     0   92.15390    0   12  104.88474   92.15390  12.1%     -    0s
     0     0   92.19831    0   11  104.88474   92.19831  12.1%     -    1s
     0     0   92.21053    0   11  104.88474   92.21053  12.1%     -    1s
     0     0   92.22296    0   12  104.88474   92.22296  12.1%     -    1s
     0     0   92.22296    0   12  104.88474   92.22296  12.1%     -    1s
     0     0   92.79828    0   10  104.88474   92.79828  11.5%     -    1s
     0     0   92.80903    0   10  104.88474   92.80903  11.5%     -    1s
     0     0   92.80903    0   10  104.88474   92.80903  11.5%     -    1s
     0     0   92.90041    0   10  104.88474   92.90041  11.4%     -    1s
     0     0   92.93098    0   11  104.88474   92.93098  11.4%     -    1s
     0     0   92.95384    0   11  104.88474   92.95384  11.4%     -    1s
     0     0   92.95671    0   11  104.88474   92.95671  11.4%     -    1s
     0     0   92.96970    0   11  104.88474   92.96970  11.4%     -    1s
     0     0   92.97572    0   11  104.88474   92.97572  11.4%     -    1s
     0     0   92.97606    0   11  104.88474   92.97606  11.4%     -    1s
     0     0   92.98698    0   11  104.88474   92.98698  11.3%     -    2s
     0     0   92.98727    0   11  104.88474   92.98727  11.3%     -    2s
     0     0   92.99330    0   11  104.88474   92.99330  11.3%     -    2s
H    0     0                     101.0404792   92.99330  7.96%     -    4s
     0     2   92.99330    0   10  101.04048   92.99330  7.96%     -    5s

Cutting planes:
  Gomory: 3
  Implied bound: 33
  MIR: 316
  Relax-and-lift: 1

Explored 209 nodes (33587 simplex iterations) in 7.21 seconds (7.04 work units)
Thread count was 36 (of 36 available processors)

Solution count 3: 101.04 104.885 151.351 

Optimal solution found (tolerance 1.00e-02)
Best objective 1.010404791631e+02, best bound 1.002292674451e+02, gap 0.8029%

Gurobi 9.5.0 (linux64) logging started Wed Nov  8 21:39:45 2023

Set parameter LogFile to value "/lustre1/scratch/348/vsc34888/JointResearch/05.Models/06.Benchmarking/G.Representative_days_based_on_Line_Benefit_NN_OC_fy_2/RTS24_ByStages_nc50/openStarNet_RTS24_ByStages_nc50.log"
Set parameter Method to value 2
Set parameter MIPFocus to value 1
Set parameter Presolve to value 2
Set parameter RINS to value 100
Set parameter MIPGap to value 0.01
Set parameter Threads to value 36
Set parameter TimeLimit to value 604800
Set parameter IterationLimit to value 760000000
No parameters matching 'relax_integrality' found
Gurobi Optimizer version 9.5.0 build v9.5.0rc5 (linux64)
Thread count: 36 physical cores, 36 logical processors, using up to 36 threads
Optimize a model with 22253 rows, 12760 columns and 53299 nonzeros
Model fingerprint: 0xb90f0c16
Coefficient statistics:
  Matrix range     [1e-03, 2e+03]
  Objective range  [1e+00, 1e+00]
  Bounds range     [4e-04, 3e+00]
  RHS range        [4e-04, 3e+01]
Presolve removed 17606 rows and 5952 columns
Presolve time: 0.02s
Presolved: 4647 rows, 6908 columns, 17102 nonzeros

Ordering time: 0.00s

Barrier statistics:
 AA' NZ     : 1.208e+04
 Factor NZ  : 5.150e+04 (roughly 4 MB of memory)
 Factor Ops : 7.900e+05 (less than 1 second per iteration)
 Threads    : 1

                  Objective                Residual
Iter       Primal          Dual         Primal    Dual     Compl     Time
   0   6.25499679e+05 -3.06413550e+08  5.62e+00 8.11e+02  5.05e+04     0s
   1   7.23402749e+04 -4.86432188e+07  4.99e-01 3.90e-11  5.37e+03     0s
   2   3.78256801e+04 -5.39091058e+06  1.44e-01 3.57e-11  5.64e+02     0s
   3   2.29427313e+04 -5.34004946e+05  5.20e-03 1.89e-11  4.75e+01     0s
   4   9.24607325e+03 -6.78396931e+04  8.31e-13 7.42e-11  6.49e+00     0s
   5   4.14294348e+03 -1.76468625e+04  8.25e-13 1.96e-11  1.83e+00     0s
   6   6.67139942e+02 -3.63093508e+03  3.79e-13 3.64e-12  3.62e-01     0s
   7   4.53542986e+02 -9.68073400e+02  3.10e-13 1.46e-11  1.20e-01     0s
   8   2.36710408e+02 -3.44524055e+02  1.37e-13 1.46e-11  4.89e-02     0s
   9   1.48402965e+02 -4.42690642e+01  2.28e-13 3.64e-12  1.62e-02     0s
  10   1.22770068e+02  5.30587748e+01  7.15e-13 1.82e-12  5.87e-03     0s
  11   1.10291179e+02  7.82474581e+01  1.43e-12 7.28e-12  2.70e-03     0s
  12   1.05683312e+02  9.27927490e+01  6.97e-13 3.64e-12  1.09e-03     0s
  13   1.02436098e+02  9.90528863e+01  8.95e-13 7.28e-12  2.85e-04     0s
  14   1.01193746e+02  1.00837741e+02  1.19e-12 7.28e-12  3.00e-05     0s
  15   1.01051511e+02  1.01013918e+02  2.69e-11 3.64e-12  3.17e-06     0s
  16   1.01041559e+02  1.01037147e+02  1.57e-11 3.64e-12  3.72e-07     0s
  17   1.01040499e+02  1.01040397e+02  3.45e-11 1.82e-12  8.60e-09     0s
  18   1.01040479e+02  1.01040479e+02  1.01e-12 7.28e-12  4.11e-13     0s

Barrier solved model in 18 iterations and 0.09 seconds (0.07 work units)
Optimal objective 1.01040479e+02

Crossover log...

     624 DPushes remaining with DInf 0.0000000e+00                 0s
       0 DPushes remaining with DInf 0.0000000e+00                 0s

     248 PPushes remaining with PInf 0.0000000e+00                 0s
       0 PPushes remaining with PInf 0.0000000e+00                 0s

  Push phase complete: Pinf 0.0000000e+00, Dinf 2.4788610e-12      0s

Iteration    Objective       Primal Inf.    Dual Inf.      Time
     276    1.0104048e+02   0.000000e+00   0.000000e+00      0s

Use crossover to convert LP symmetric solution to basic solution...
Crossover log...

       0 DPushes remaining with DInf 0.0000000e+00                 0s

     153 PPushes remaining with PInf 0.0000000e+00                 0s
       0 PPushes remaining with PInf 0.0000000e+00                 0s

  Push phase complete: Pinf 0.0000000e+00, Dinf 1.8158805e-12      0s

Iteration    Objective       Primal Inf.    Dual Inf.      Time
     448    1.0104048e+02   0.000000e+00   0.000000e+00      0s

Solved in 448 iterations and 0.13 seconds (0.10 work units)
Optimal objective  1.010404792e+02
